(declare-const x0 Real)
(assert (<= 0.0 x0))
(declare-const x1 Real)
(assert (<= 0.0 x1))
(declare-const x2 Real)
(assert (<= 0.0 x2))
(declare-const x3 Real)
(assert (<= 0.0 x3))
(declare-const x4 Real)
(assert (<= 0.0 x4))
(declare-const x5 Real)
(assert (<= 0.0 x5))
(declare-const x6 Real)
(assert (<= 0.0 x6))
(declare-const x7 Real)
(assert (<= 0.0 x7))
(declare-const x8 Real)
(assert (<= 0.0 x8))
(declare-const x9 Real)
(assert (<= 0.0 x9))
(declare-const x10 Real)
(assert (<= 0.0 x10))
(declare-const x11 Real)
(assert (<= 0.0 x11))
(declare-const x12 Real)
(assert (<= 0.0 x12))
(declare-const x13 Real)
(assert (<= 0.0 x13))
(declare-const x14 Real)
(assert (<= 0.0 x14))

(assert (<= 15.0 (+ (* 60.0 x0) (* (- 40.0) x1) (* (- 20.0) x2) (* 64.0 x3) (* (- 20.0) x4) (* 16.0 x5) (* 3.500000 x7) (* (- 2.0) x10) (* 1.0 x11) (* 1.0 x12) (* (- 1.0) x13) (* (- 1.0) x14) (* 12.0 (^ x0 2.0)))))
(assert (<= 27.0 (+ (* (- 40.0) x0) (* 78.0 x1) (* (- 12.0) x2) (* (- 62.0) x3) (* 64.0 x4) (* (- 2.0) x5) (* 2.0 x6) (* 2.0 x8) (* 9.0 x9) (* 1.0 x11) (* 2.0 x12) (* (- 2.0) x13) (* (- 1.0) x14) (* 24.0 (^ x1 2.0)))))
(assert (<= 36.0 (+ (* (- 20.0) x0) (* (- 12.0) x1) (* 20.0 x2) (* (- 12.0) x3) (* (- 20.0) x4) (* (- 2.0) x7) (* 2.0 x9) (* 4.0 x10) (* 1.0 x11) (* 3.0 x12) (* (- 3.0) x13) (* (- 1.0) x14) (* 30.0 (^ x2 2.0)))))
(assert (<= 18.0 (+ (* 64.0 x0) (* (- 62.0) x1) (* (- 12.0) x2) (* 78.0 x3) (* (- 40.0) x4) (* (- 1.0) x5) (* (- 4.0) x6) (* 4.0 x8) (* (- 1.0) x9) (* 1.0 x11) (* 2.0 x12) (* (- 4.0) x13) (* (- 1.0) x14) (* 18.0 (^ x3 2.0)))))
(assert (<= 12.0 (+ (* (- 20.0) x0) (* 64.0 x1) (* (- 20.0) x2) (* (- 40.0) x3) (* 60.0 x4) (* (- 2.0) x6) (* 1.0 x8) (* 2.800000 x9) (* 1.0 x11) (* 1.0 x12) (* (- 5.0) x13) (* (- 1.0) x14) (* 6.0 (^ x4 2.0)))))

(minimize
	(+ (* 40.0 x5) (* 2.0 x6) (* 0.250000 x7) (* 4.0 x8) (* 4.0 x9) (* 1.0 x10) (* 40.0 x11) (* 60.0 x12) (* (- 5.0) x13) (* (- 1.0) x14) (+ (* (* 30.0 x0) x0) (* (* (- 20.0) x1) x0) (* (* (- 10.0) x2) x0) (* (* 32.0 x3) x0) (* (* (- 10.0) x4) x0) (* (* (- 20.0) x0) x1) (* (* 39.0 x1) x1) (* (* (- 6.0) x2) x1) (* (* (- 31.0) x3) x1) (* (* 32.0 x4) x1) (* (* (- 10.0) x0) x2) (* (* (- 6.0) x1) x2) (* (* 10.0 x2) x2) (* (* (- 6.0) x3) x2) (* (* (- 10.0) x4) x2) (* (* 32.0 x0) x3) (* (* (- 31.0) x1) x3) (* (* (- 6.0) x2) x3) (* (* 39.0 x3) x3) (* (* (- 20.0) x4) x3) (* (* (- 10.0) x0) x4) (* (* 32.0 x1) x4) (* (* (- 10.0) x2) x4) (* (* (- 20.0) x3) x4) (* (* 30.0 x4) x4) (* 8.0 (^ x0 3.0)) (* 16.0 (^ x1 3.0)) (* 20.0 (^ x2 3.0)) (* 12.0 (^ x3 3.0)) (* 4.0 (^ x4 3.0))))
)
(check-sat)
(get-objectives)
(exit)

